NAME : mEgtspf
TYPE : AGTSP
DIMENSION : 27
GTSP_SETS : 9
EDGE_WEIGHT_TYPE : EXPLICIT
EDGE_WEIGHT_FORMAT : FULL_MATRIX
EDGE_WEIGHT_SECTION
0 0 0 13 12 13 14 35 34 35 36 22 23 24 23 37 36 37 38 39 38 39 40 40 39 40 41
0 0 0 11 12 13 12 31 30 31 32 38 37 38 39 17 16 17 18 29 28 29 30 22 21 22 23
0 0 0 34 35 34 33 12 13 12 11 13 14 15 14 36 37 36 35 14 15 14 13 21 22 21 20
0 0 0 0 0 0 0 24 23 24 25 31 30 31 32 28 27 26 27 30 29 28 29 31 30 29 30
0 0 0 0 0 0 0 23 22 23 24 30 31 32 31 27 26 25 26 29 28 27 28 30 29 28 29
0 0 0 0 0 0 0 24 23 24 25 31 32 33 32 26 25 26 27 28 27 28 29 29 28 29 30
0 0 0 0 0 0 0 25 24 25 26 32 31 32 33 27 26 27 28 29 28 29 30 30 29 30 31
0 0 0 24 25 24 23 0 0 0 0 19 20 19 18 28 27 26 27 8 7 6 7 13 12 11 12
0 0 0 25 26 25 24 0 0 0 0 20 21 20 19 27 28 27 26 7 6 5 6 12 13 12 11
0 0 0 24 25 24 23 0 0 0 0 19 20 21 20 26 27 26 25 6 5 6 7 11 12 11 10
0 0 0 23 24 23 22 0 0 0 0 18 19 20 19 27 26 25 26 7 6 7 8 12 11 10 11
0 0 0 33 32 31 32 21 20 19 20 0 0 0 0 35 34 33 34 25 24 23 24 26 25 24 25
0 0 0 32 33 32 31 20 19 18 19 0 0 0 0 34 35 34 33 24 23 22 23 25 24 23 24
0 0 0 31 32 31 30 19 18 19 20 0 0 0 0 33 34 33 32 23 22 23 24 24 23 24 25
0 0 0 32 31 30 31 20 19 20 21 0 0 0 0 34 33 32 33 24 23 24 25 25 24 25 26
0 0 0 26 27 26 25 26 25 26 27 33 32 33 34 0 0 0 0 24 23 24 25 17 16 17 18
0 0 0 27 28 27 26 25 26 27 26 32 33 34 33 0 0 0 0 23 24 25 24 16 17 18 17
0 0 0 26 27 28 27 26 27 28 27 33 34 35 34 0 0 0 0 24 25 26 25 17 18 19 18
0 0 0 25 26 27 26 27 26 27 28 34 33 34 35 0 0 0 0 25 24 25 26 18 17 18 19
0 0 0 28 29 28 27 6 7 6 5 23 24 23 22 26 25 24 25 0 0 0 0 11 10 9 10
0 0 0 29 30 29 28 7 8 7 6 24 25 24 23 25 26 25 24 0 0 0 0 10 11 10 9
0 0 0 28 29 30 29 6 7 8 7 23 24 25 24 24 25 24 23 0 0 0 0 9 10 9 8
0 0 0 27 28 29 28 5 6 7 6 22 23 24 23 25 24 23 24 0 0 0 0 10 9 8 9
0 0 0 29 30 29 28 11 10 11 12 24 25 24 23 19 18 17 18 9 8 9 10 0 0 0 0
0 0 0 30 31 30 29 10 11 12 11 25 26 25 24 18 19 18 17 8 9 10 9 0 0 0 0
0 0 0 29 30 31 30 11 12 13 12 24 25 26 25 17 18 17 16 9 10 11 10 0 0 0 0
0 0 0 28 29 30 29 12 11 12 13 23 24 25 24 18 17 16 17 10 9 10 11 0 0 0 0
GTSP_SET_SECTION
1 1 -1
2 2 -1
3 3 -1
4 4 5 6 7 -1
5 8 9 10 11 -1
6 12 13 14 15 -1
7 16 17 18 19 -1
8 20 21 22 23 -1
9 24 25 26 27 -1
